c preprocessed version of RingedTree_10, 765 vertices, 1784 edges
p td 765 1784
1 0
6 0
760 0
5 0
761 0
1 2
753 1
9 1
761 1
2 3
83 2
2 84
86 2
4 3
761 3
88 3
86 3
4 5
4 761
88 4
5 6
761 5
6 7
6 760
7 8
760 7
13 7
9 8
760 8
13 8
14 8
9 10
753 9
760 9
10 11
17 10
754 10
14 10
12 11
14 11
16 11
15 11
13 12
14 12
15 12
13 14
15 16
15 540
16 17
16 539
16 540
18 17
754 17
17 539
19 18
18 536
758 18
538 18
20 19
758 19
19 533
542 19
21 20
526 20
20 530
532 20
22 21
519 21
21 526
21 758
23 22
756 22
22 519
22 755
24 23
664 23
23 521
23 520
25 24
757 24
24 664
24 756
26 25
667 25
25 666
25 665
27 26
29 26
26 667
26 757
28 27
27 757
72 27
73 27
28 29
28 66
71 28
73 28
29 30
66 29
29 70
30 31
30 368
30 667
70 30
32 31
31 368
31 365
31 366
33 32
70 32
32 363
32 364
34 33
33 361
70 33
33 362
35 34
69 34
34 359
34 360
36 35
35 357
69 35
35 358
37 36
67 36
36 355
36 356
38 37
37 353
67 37
37 354
39 38
68 38
38 351
38 352
40 39
39 257
68 39
39 258
40 41
64 40
74 40
40 718
42 41
41 718
41 252
41 253
43 42
74 42
42 250
42 251
44 43
43 248
74 43
43 249
45 44
75 44
44 246
44 247
46 45
45 244
75 45
45 245
47 46
76 46
46 242
46 243
48 47
76 47
47 240
47 241
49 48
221 48
48 236
48 239
50 49
62 49
49 221
49 76
50 51
759 50
62 50
50 220
52 51
51 213
51 218
51 220
53 52
52 208
52 212
759 52
54 53
53 198
759 53
53 199
55 54
175 54
54 189
54 190
56 55
163 55
55 175
55 759
57 56
60 56
56 759
56 62
58 57
57 151
60 57
57 163
59 58
58 79
77 58
58 745
59 60
59 77
59 757
72 59
60 61
72 60
61 62
61 65
61 63
71 61
62 63
63 64
63 76
63 75
65 64
64 74
64 68
65 66
65 68
71 65
66 67
66 69
68 67
67 69
69 70
72 71
73 71
73 72
75 74
76 75
77 78
77 752
77 756
78 79
78 82
78 81
752 78
79 80
79 128
79 745
81 80
80 106
80 109
80 128
82 81
81 102
81 105
83 82
82 92
82 93
83 84
752 83
753 83
84 85
84 92
90 84
86 85
87 85
89 85
90 85
87 86
86 88
87 88
89 87
90 89
97 89
90 91
97 90
92 91
97 91
96 91
95 91
92 93
95 92
93 94
93 102
100 93
95 94
98 94
99 94
100 94
95 96
98 95
96 97
98 96
99 98
100 99
122 99
101 100
122 100
101 102
101 103
101 122
121 101
102 103
102 105
104 103
120 103
121 103
104 105
104 118
104 120
119 104
105 106
105 118
106 107
106 109
123 106
108 107
116 107
123 107
115 107
108 109
108 112
114 108
108 115
109 110
109 112
111 110
128 110
110 127
125 110
111 112
111 113
125 111
124 111
113 112
114 112
114 113
124 113
114 115
115 116
116 117
116 123
117 118
117 119
123 117
119 118
123 118
119 120
121 120
121 122
125 124
135 124
125 126
135 125
127 126
133 126
134 126
135 126
128 127
127 130
134 127
128 129
129 130
129 141
129 139
745 129
130 131
130 139
751 130
132 131
134 131
136 131
751 131
133 132
134 132
136 132
134 133
135 133
137 136
751 136
137 138
137 751
749 137
139 138
751 138
749 138
748 138
139 140
748 139
141 140
140 142
140 144
747 140
141 142
141 150
745 141
143 142
142 149
142 147
143 144
143 145
143 147
146 143
145 144
747 144
746 144
146 145
746 145
146 147
146 743
148 147
743 147
148 149
148 741
148 743
742 148
150 149
149 154
149 741
151 150
150 154
150 152
151 152
151 163
745 151
152 153
152 162
152 160
154 153
153 158
153 160
738 153
154 155
744 154
156 155
739 155
744 155
738 155
157 156
156 739
738 156
157 158
157 738
735 157
159 158
738 158
735 158
159 160
159 733
159 735
734 159
160 161
160 733
162 161
161 730
161 166
736 161
163 162
162 166
162 164
163 164
164 165
164 173
164 175
166 165
165 169
165 173
171 165
167 166
729 166
168 167
167 169
729 167
728 167
168 169
170 168
728 168
170 169
171 169
171 170
182 170
171 172
182 171
173 172
182 172
181 172
180 172
173 174
180 173
175 174
174 179
174 176
178 174
175 176
176 177
176 189
727 176
178 177
185 177
186 177
727 177
178 179
178 184
185 178
180 179
183 179
184 179
180 181
183 180
181 182
183 181
184 183
185 184
186 185
187 186
727 186
187 188
187 727
193 187
189 188
727 188
193 188
192 188
189 190
192 189
190 191
190 198
196 190
192 191
194 191
195 191
196 191
192 193
194 192
194 193
195 194
196 195
203 195
196 197
203 196
198 197
203 197
202 197
201 197
198 199
201 198
199 200
199 208
206 199
201 200
204 200
205 200
206 200
201 202
204 201
202 203
204 202
205 204
206 205
726 205
207 206
726 206
207 208
207 209
207 726
725 207
208 209
208 212
210 209
211 209
725 209
211 210
724 210
725 210
211 212
211 722
724 211
212 213
212 722
213 214
213 218
721 213
215 214
721 214
720 214
719 214
216 215
215 720
719 215
216 217
216 227
216 719
218 217
226 217
227 217
719 217
218 219
719 218
220 219
219 225
219 223
226 219
220 221
220 223
221 222
221 235
223 222
222 235
222 233
232 222
224 223
223 231
224 225
224 231
230 224
224 229
226 225
229 225
228 225
226 227
228 226
228 227
228 229
230 229
230 231
315 230
232 231
315 231
232 233
232 315
314 232
234 233
313 233
314 233
234 235
234 310
234 313
312 234
235 236
235 310
236 237
236 239
309 236
238 237
309 237
307 237
308 237
238 239
238 307
238 316
306 238
239 240
239 316
240 241
240 303
317 240
241 242
241 301
302 241
242 243
242 298
320 242
243 244
243 296
297 243
244 245
244 293
323 244
245 246
245 291
292 245
246 247
246 288
326 246
247 248
247 286
287 247
248 249
248 283
329 248
249 250
249 281
282 249
250 251
250 278
332 250
251 252
251 276
277 251
252 253
252 273
335 252
253 254
253 271
272 253
254 255
718 254
254 268
338 254
255 256
718 255
255 266
267 255
257 256
256 717
256 263
341 256
257 258
718 257
257 717
258 259
258 351
258 349
260 259
259 349
717 259
259 716
260 261
260 716
260 344
345 260
262 261
717 261
344 261
343 261
262 263
262 717
262 342
343 262
264 263
342 263
341 263
264 265
264 342
264 341
265 266
341 265
340 265
267 266
341 266
340 266
267 268
267 339
340 267
269 268
339 268
338 268
269 270
269 339
269 338
270 271
338 270
337 270
272 271
338 271
337 271
272 273
272 336
337 272
274 273
336 273
335 273
274 275
274 336
274 335
275 276
335 275
334 275
277 276
335 276
334 276
277 278
277 333
334 277
279 278
333 278
332 278
279 280
279 333
279 332
280 281
332 280
331 280
282 281
332 281
331 281
282 283
282 330
331 282
284 283
330 283
329 283
284 285
284 330
284 329
285 286
329 285
328 285
287 286
329 286
328 286
287 288
287 327
328 287
289 288
327 288
326 288
289 290
289 327
289 326
290 291
326 290
325 290
292 291
326 291
325 291
292 293
292 324
325 292
294 293
324 293
323 293
294 295
294 324
294 323
295 296
323 295
322 295
297 296
323 296
322 296
297 298
297 321
322 297
299 298
321 298
320 298
299 300
299 321
299 320
300 301
320 300
319 300
302 301
320 301
319 301
302 303
302 318
319 302
304 303
318 303
317 303
304 305
304 318
304 317
306 305
305 316
317 305
306 307
306 316
308 307
308 309
308 311
309 310
309 311
311 310
312 310
312 311
312 313
314 313
314 315
317 316
319 318
322 321
325 324
328 327
331 330
334 333
337 336
340 339
343 342
343 344
345 344
345 346
345 716
347 346
346 716
715 346
347 348
347 411
347 715
349 348
410 348
411 348
715 348
349 350
715 349
351 350
350 405
350 409
410 350
351 352
351 405
352 353
352 404
352 403
353 354
353 402
353 401
354 355
354 400
354 399
355 356
355 398
355 397
356 357
356 396
356 395
357 358
357 394
357 393
358 359
358 392
358 391
359 360
359 390
359 389
360 361
360 388
360 387
361 362
361 386
361 385
362 363
362 384
362 383
363 364
363 382
363 381
364 365
364 380
364 379
365 366
365 378
365 377
366 367
366 376
366 375
368 367
367 371
367 374
367 373
368 369
368 371
369 370
369 504
667 369
369 502
371 370
370 502
370 499
370 500
371 372
371 498
373 372
372 496
372 498
495 372
374 373
373 494
668 373
375 374
374 491
490 374
376 375
375 489
671 375
377 376
376 486
485 376
378 377
377 484
674 377
379 378
378 481
480 378
380 379
379 479
677 379
381 380
380 476
475 380
382 381
381 474
680 381
383 382
382 471
470 382
384 383
383 469
683 383
385 384
384 466
465 384
386 385
385 464
686 385
387 386
386 461
460 386
388 387
387 459
689 387
389 388
388 456
455 388
390 389
389 454
692 389
391 390
390 451
450 390
392 391
391 449
695 391
393 392
392 446
445 392
394 393
393 444
698 393
395 394
394 441
440 394
396 395
395 439
701 395
397 396
396 436
435 396
398 397
397 434
704 397
399 398
398 431
430 398
400 399
399 429
707 399
401 400
400 426
425 400
402 401
401 424
710 401
403 402
402 421
420 402
404 403
403 419
713 403
405 404
404 416
415 404
405 406
413 405
407 406
415 406
414 406
413 406
407 408
407 414
407 413
408 409
413 408
412 408
410 409
413 409
412 409
410 411
412 410
412 411
415 414
714 414
415 416
714 415
417 416
713 416
714 416
418 417
713 417
714 417
418 419
418 712
418 713
420 419
712 419
713 419
420 421
420 712
711 420
422 421
710 421
711 421
423 422
710 422
711 422
423 424
423 709
423 710
425 424
709 424
710 424
425 426
425 709
708 425
427 426
707 426
708 426
428 427
707 427
708 427
428 429
428 706
428 707
430 429
706 429
707 429
430 431
430 706
705 430
432 431
704 431
705 431
433 432
704 432
705 432
433 434
433 703
433 704
435 434
703 434
704 434
435 436
435 703
702 435
437 436
701 436
702 436
438 437
701 437
702 437
438 439
438 700
438 701
440 439
700 439
701 439
440 441
440 700
699 440
442 441
698 441
699 441
443 442
698 442
699 442
443 444
443 697
443 698
445 444
697 444
698 444
445 446
445 697
696 445
447 446
695 446
696 446
448 447
695 447
696 447
448 449
448 694
448 695
450 449
694 449
695 449
450 451
450 694
693 450
452 451
692 451
693 451
453 452
692 452
693 452
453 454
453 691
453 692
455 454
691 454
692 454
455 456
455 691
690 455
457 456
689 456
690 456
458 457
689 457
690 457
458 459
458 688
458 689
460 459
688 459
689 459
460 461
460 688
687 460
462 461
686 461
687 461
463 462
686 462
687 462
463 464
463 685
463 686
465 464
685 464
686 464
465 466
465 685
684 465
467 466
683 466
684 466
468 467
683 467
684 467
468 469
468 682
468 683
470 469
682 469
683 469
470 471
470 682
681 470
472 471
680 471
681 471
473 472
680 472
681 472
473 474
473 679
473 680
475 474
679 474
680 474
475 476
475 679
678 475
477 476
677 476
678 476
478 477
677 477
678 477
478 479
478 676
478 677
480 479
676 479
677 479
480 481
480 676
675 480
482 481
674 481
675 481
483 482
674 482
675 482
483 484
483 673
483 674
485 484
673 484
674 484
485 486
485 673
672 485
487 486
671 486
672 486
488 487
671 487
672 487
488 489
488 670
488 671
490 489
670 489
671 489
490 491
490 670
669 490
492 491
668 491
669 491
493 492
668 492
669 492
493 494
493 634
493 668
495 494
634 494
668 494
495 496
633 495
495 634
497 496
632 496
633 496
497 498
497 630
497 632
631 497
498 499
498 630
499 500
499 627
635 499
500 501
500 625
626 500
502 501
501 623
501 621
624 501
502 503
502 621
504 503
503 505
503 619
503 620
504 505
667 504
504 666
505 506
505 618
505 617
506 507
506 616
666 506
506 615
507 508
666 507
507 599
507 598
508 509
508 597
665 508
508 596
509 510
665 509
509 576
509 575
510 511
510 574
664 510
510 573
511 512
664 511
511 572
511 521
512 513
572 512
512 567
566 512
513 514
513 563
521 513
562 513
514 515
521 514
514 559
558 514
515 516
515 555
520 515
554 515
516 517
520 516
516 551
550 516
517 518
517 547
519 517
546 517
519 518
518 522
518 526
524 518
520 519
521 520
523 522
524 522
546 522
545 522
524 523
544 523
545 523
524 525
544 524
526 525
528 525
527 525
544 525
527 526
527 528
527 530
529 527
529 528
544 528
529 530
529 531
531 530
532 530
532 531
543 531
532 533
543 532
534 533
542 533
543 533
534 535
542 534
543 534
535 536
535 537
542 535
537 536
538 536
542 536
538 537
541 537
538 539
541 538
540 539
541 539
541 540
545 546
545 548
546 547
546 548
548 547
550 547
549 547
549 548
549 550
549 552
550 551
550 552
552 551
554 551
553 551
553 552
553 554
553 556
554 555
554 556
556 555
558 555
557 555
557 556
557 558
557 560
558 559
558 560
560 559
562 559
561 559
561 560
561 562
561 564
562 563
562 564
564 563
566 563
565 563
565 564
565 566
565 568
566 567
566 568
568 567
663 567
569 567
569 568
569 570
569 663
570 571
663 570
590 570
572 571
663 571
589 571
590 571
573 572
663 572
574 573
573 587
589 573
575 574
574 584
586 574
576 575
575 580
592 575
576 577
596 576
581 576
578 577
581 577
593 577
662 577
579 578
581 578
593 578
579 580
579 581
582 579
581 580
582 580
592 580
583 582
592 582
583 584
583 585
583 592
585 584
586 584
592 584
586 585
591 585
586 587
591 586
588 587
589 587
591 587
589 588
590 588
591 588
590 589
593 594
593 662
594 595
662 594
609 594
596 595
662 595
607 595
609 595
597 596
662 596
598 597
597 606
607 597
599 598
598 603
605 598
599 600
615 599
611 599
601 600
611 600
612 600
661 600
602 601
611 601
612 601
602 603
602 604
602 611
604 603
605 603
611 603
605 604
610 604
605 606
610 605
607 606
608 606
610 606
607 608
609 607
609 608
610 608
612 613
612 661
613 614
661 613
659 613
615 614
661 614
657 614
659 614
616 615
661 615
617 616
616 656
657 616
618 617
617 653
660 617
619 618
652 618
620 619
619 649
650 619
621 620
620 644
643 620
622 621
621 642
622 623
622 640
622 642
641 622
624 623
640 623
639 623
624 625
624 638
639 624
626 625
638 625
637 625
626 627
626 636
637 626
628 627
635 627
636 627
628 629
628 635
636 628
629 630
629 631
635 629
631 630
635 630
631 632
633 632
633 634
637 636
637 638
639 638
639 640
641 640
641 642
641 646
643 642
646 642
643 644
643 646
645 643
645 644
647 644
650 644
645 646
647 645
648 647
650 647
648 649
648 650
651 648
650 649
651 649
652 649
652 651
654 653
660 653
655 654
660 654
655 656
655 658
655 660
657 656
658 656
660 656
657 658
659 657
659 658
665 664
666 665
669 670
672 673
675 676
678 679
681 682
684 685
687 688
690 691
693 694
696 697
699 700
702 703
705 706
708 709
711 712
715 716
720 721
720 723
721 722
721 723
723 722
724 722
724 723
725 726
729 728
728 737
729 730
729 737
731 730
736 730
737 730
731 732
731 736
737 731
732 733
732 734
736 732
734 733
736 733
734 735
739 740
739 744
740 741
740 742
744 740
742 741
744 741
742 743
746 747
746 750
747 748
747 750
748 749
750 748
750 749
752 753
752 755
753 754
755 754
758 754
756 755
755 758
757 756
762 618
762 763
762 653
762 652
763 651
763 652
764 762
764 763
764 653
764 654
